benchmark/results/graph__10-1000-0.10-03_10/graph__10-1000-0.10-03_10_Quinton_Benders_master.lp
\ This file has been generated by DOcplex
\ ENCODING=ISO-8859-1
\Problem name: Quinton Benders_master

Maximize
 obj: z
Subject To
 c1: m_a0_proc_0 + m_a0_proc_1 + m_a0_proc_2 = 1
 c2: m_a1_proc_0 + m_a1_proc_1 + m_a1_proc_2 = 1
 c3: m_a2_proc_0 + m_a2_proc_1 + m_a2_proc_2 = 1
 c4: m_a3_proc_0 + m_a3_proc_1 + m_a3_proc_2 = 1
 c5: m_a4_proc_0 + m_a4_proc_1 = 1
 c6: m_a5_proc_0 + m_a5_proc_1 + m_a5_proc_2 = 1
 c7: m_a6_proc_0 + m_a6_proc_1 + m_a6_proc_2 = 1
 c8: m_a7_proc_1 + m_a7_proc_2 = 1
 c9: m_a8_proc_0 + m_a8_proc_1 + m_a8_proc_2 = 1
 c10: m_a9_proc_0 + m_a9_proc_1 = 1
 c11: K_a0_a1 + K_a1_a0 = 1
 c12: K_a0_a1 + K_a1_a0 = 1
 c13: K_a0_a2 + K_a2_a0 = 1
 c14: K_a0_a2 + K_a2_a0 = 1
 c15: K_a0_a3 + K_a3_a0 = 1
 c16: K_a0_a3 + K_a3_a0 = 1
 c17: K_a0_a4 + K_a4_a0 = 1
 c18: K_a0_a4 + K_a4_a0 = 1
 c19: K_a0_a5 + K_a5_a0 = 1
 c20: K_a0_a5 + K_a5_a0 = 1
 c21: K_a0_a6 + K_a6_a0 = 1
 c22: K_a0_a6 + K_a6_a0 = 1
 c23: K_a0_a7 + K_a7_a0 = 1
 c24: K_a0_a7 + K_a7_a0 = 1
 c25: K_a0_a8 + K_a8_a0 = 1
 c26: K_a0_a8 + K_a8_a0 = 1
 c27: K_a0_a9 + K_a9_a0 = 1
 c28: K_a0_a9 + K_a9_a0 = 1
 c29: K_a1_a2 + K_a2_a1 = 1
 c30: K_a1_a2 + K_a2_a1 = 1
 c31: K_a1_a3 + K_a3_a1 = 1
 c32: K_a1_a3 + K_a3_a1 = 1
 c33: K_a1_a4 + K_a4_a1 = 1
 c34: K_a1_a4 + K_a4_a1 = 1
 c35: K_a1_a5 + K_a5_a1 = 1
 c36: K_a1_a5 + K_a5_a1 = 1
 c37: K_a1_a6 + K_a6_a1 = 1
 c38: K_a1_a6 + K_a6_a1 = 1
 c39: K_a1_a7 + K_a7_a1 = 1
 c40: K_a1_a7 + K_a7_a1 = 1
 c41: K_a1_a8 + K_a8_a1 = 1
 c42: K_a1_a8 + K_a8_a1 = 1
 c43: K_a1_a9 + K_a9_a1 = 1
 c44: K_a1_a9 + K_a9_a1 = 1
 c45: K_a2_a3 + K_a3_a2 = 1
 c46: K_a2_a3 + K_a3_a2 = 1
 c47: K_a2_a4 + K_a4_a2 = 1
 c48: K_a2_a4 + K_a4_a2 = 1
 c49: K_a2_a5 + K_a5_a2 = 1
 c50: K_a2_a5 + K_a5_a2 = 1
 c51: K_a2_a6 + K_a6_a2 = 1
 c52: K_a2_a6 + K_a6_a2 = 1
 c53: K_a2_a7 + K_a7_a2 = 1
 c54: K_a2_a7 + K_a7_a2 = 1
 c55: K_a2_a8 + K_a8_a2 = 1
 c56: K_a2_a8 + K_a8_a2 = 1
 c57: K_a2_a9 + K_a9_a2 = 1
 c58: K_a2_a9 + K_a9_a2 = 1
 c59: K_a3_a4 + K_a4_a3 = 1
 c60: K_a3_a4 + K_a4_a3 = 1
 c61: K_a3_a5 + K_a5_a3 = 1
 c62: K_a3_a5 + K_a5_a3 = 1
 c63: K_a3_a6 + K_a6_a3 = 1
 c64: K_a3_a6 + K_a6_a3 = 1
 c65: K_a3_a7 + K_a7_a3 = 1
 c66: K_a3_a7 + K_a7_a3 = 1
 c67: K_a3_a8 + K_a8_a3 = 1
 c68: K_a3_a8 + K_a8_a3 = 1
 c69: K_a3_a9 + K_a9_a3 = 1
 c70: K_a3_a9 + K_a9_a3 = 1
 c71: K_a4_a5 + K_a5_a4 = 1
 c72: K_a4_a5 + K_a5_a4 = 1
 c73: K_a4_a6 + K_a6_a4 = 1
 c74: K_a4_a6 + K_a6_a4 = 1
 c75: K_a4_a7 + K_a7_a4 = 1
 c76: K_a4_a7 + K_a7_a4 = 1
 c77: K_a4_a8 + K_a8_a4 = 1
 c78: K_a4_a8 + K_a8_a4 = 1
 c79: K_a4_a9 + K_a9_a4 = 1
 c80: K_a4_a9 + K_a9_a4 = 1
 c81: K_a5_a6 + K_a6_a5 = 1
 c82: K_a5_a6 + K_a6_a5 = 1
 c83: K_a5_a7 + K_a7_a5 = 1
 c84: K_a5_a7 + K_a7_a5 = 1
 c85: K_a5_a8 + K_a8_a5 = 1
 c86: K_a5_a8 + K_a8_a5 = 1
 c87: K_a5_a9 + K_a9_a5 = 1
 c88: K_a5_a9 + K_a9_a5 = 1
 c89: K_a6_a7 + K_a7_a6 = 1
 c90: K_a6_a7 + K_a7_a6 = 1
 c91: K_a6_a8 + K_a8_a6 = 1
 c92: K_a6_a8 + K_a8_a6 = 1
 c93: K_a6_a9 + K_a9_a6 = 1
 c94: K_a6_a9 + K_a9_a6 = 1
 c95: K_a7_a8 + K_a8_a7 = 1
 c96: K_a7_a8 + K_a8_a7 = 1
 c97: K_a7_a9 + K_a9_a7 = 1
 c98: K_a7_a9 + K_a9_a7 = 1
 c99: K_a8_a9 + K_a9_a8 = 1
 c100: K_a8_a9 + K_a9_a8 = 1
 c101: z <= 99999999989999992832
 c102: - 1256 m_a0_proc_0 + w_a4 - w_a0 >= -1256.906956605407
 c103: K_a0_a1 - 1256 m_a0_proc_0 - 1256 m_a1_proc_0 + w_a1 - w_a0 >= 
       -2511.906956605408
 c104: K_a0_a2 - 1256 m_a0_proc_0 - 1256 m_a2_proc_0 + w_a2 - w_a0 >= 
       -2511.906956605408
 c105: K_a0_a3 - 1256 m_a0_proc_0 - 1256 m_a3_proc_0 + w_a3 - w_a0 >= 
       -2511.906956605408
 c106: K_a0_a4 - 1256 m_a0_proc_0 - 1256 m_a4_proc_0 + w_a4 - w_a0 >= 
       -2511.906956605408
 c107: K_a0_a5 - 1256 m_a0_proc_0 - 1256 m_a5_proc_0 + w_a5 - w_a0 >= 
       -2511.906956605408
 c108: K_a0_a6 - 1256 m_a0_proc_0 - 1256 m_a6_proc_0 + w_a6 - w_a0 >= 
       -2511.906956605408
 c109: K_a0_a8 - 1256 m_a0_proc_0 - 1256 m_a8_proc_0 + w_a8 - w_a0 >= 
       -2511.906956605408
 c110: K_a0_a9 - 1256 m_a0_proc_0 - 1256 m_a9_proc_0 + w_a9 - w_a0 >= 
       -2511.906956605408
 c111: - 1256 m_a0_proc_1 + w_a4 - w_a0 >= -1256.933609160012
 c112: K_a0_a1 - 1256 m_a0_proc_1 - 1256 m_a1_proc_1 + w_a1 - w_a0 >= 
       -2511.933609160012
 c113: K_a0_a2 - 1256 m_a0_proc_1 - 1256 m_a2_proc_1 + w_a2 - w_a0 >= 
       -2511.933609160012
 c114: K_a0_a3 - 1256 m_a0_proc_1 - 1256 m_a3_proc_1 + w_a3 - w_a0 >= 
       -2511.933609160012
 c115: K_a0_a4 - 1256 m_a0_proc_1 - 1256 m_a4_proc_1 + w_a4 - w_a0 >= 
       -2511.933609160012
 c116: K_a0_a5 - 1256 m_a0_proc_1 - 1256 m_a5_proc_1 + w_a5 - w_a0 >= 
       -2511.933609160012
 c117: K_a0_a6 - 1256 m_a0_proc_1 - 1256 m_a6_proc_1 + w_a6 - w_a0 >= 
       -2511.933609160012
 c118: K_a0_a7 - 1256 m_a0_proc_1 - 1256 m_a7_proc_1 + w_a7 - w_a0 >= 
       -2511.933609160012
 c119: K_a0_a8 - 1256 m_a0_proc_1 - 1256 m_a8_proc_1 + w_a8 - w_a0 >= 
       -2511.933609160012
 c120: K_a0_a9 - 1256 m_a0_proc_1 - 1256 m_a9_proc_1 + w_a9 - w_a0 >= 
       -2511.933609160012
 c121: - 1256 m_a0_proc_2 + w_a4 - w_a0 >= -1256.922832675840
 c122: K_a0_a1 - 1256 m_a0_proc_2 - 1256 m_a1_proc_2 + w_a1 - w_a0 >= 
       -2511.922832675839
 c123: K_a0_a2 - 1256 m_a0_proc_2 - 1256 m_a2_proc_2 + w_a2 - w_a0 >= 
       -2511.922832675839
 c124: K_a0_a3 - 1256 m_a0_proc_2 - 1256 m_a3_proc_2 + w_a3 - w_a0 >= 
       -2511.922832675839
 c125: K_a0_a5 - 1256 m_a0_proc_2 - 1256 m_a5_proc_2 + w_a5 - w_a0 >= 
       -2511.922832675839
 c126: K_a0_a6 - 1256 m_a0_proc_2 - 1256 m_a6_proc_2 + w_a6 - w_a0 >= 
       -2511.922832675839
 c127: K_a0_a7 - 1256 m_a0_proc_2 - 1256 m_a7_proc_2 + w_a7 - w_a0 >= 
       -2511.922832675839
 c128: K_a0_a8 - 1256 m_a0_proc_2 - 1256 m_a8_proc_2 + w_a8 - w_a0 >= 
       -2511.922832675839
 c129: - 1256 m_a1_proc_0 + w_a0 - w_a1 >= -1255.905898200712
 c130: - 1256 m_a1_proc_0 + w_a3 - w_a1 >= -1255.905898200712
 c131: K_a1_a0 - 1256 m_a0_proc_0 - 1256 m_a1_proc_0 + w_a0 - w_a1 >= 
       -2511.905898200712
 c132: K_a1_a2 - 1256 m_a1_proc_0 - 1256 m_a2_proc_0 + w_a2 - w_a1 >= 
       -2511.905898200712
 c133: K_a1_a3 - 1256 m_a1_proc_0 - 1256 m_a3_proc_0 + w_a3 - w_a1 >= 
       -2511.905898200712
 c134: K_a1_a4 - 1256 m_a1_proc_0 - 1256 m_a4_proc_0 + w_a4 - w_a1 >= 
       -2511.905898200712
 c135: K_a1_a5 - 1256 m_a1_proc_0 - 1256 m_a5_proc_0 + w_a5 - w_a1 >= 
       -2511.905898200712
 c136: K_a1_a6 - 1256 m_a1_proc_0 - 1256 m_a6_proc_0 + w_a6 - w_a1 >= 
       -2511.905898200712
 c137: K_a1_a8 - 1256 m_a1_proc_0 - 1256 m_a8_proc_0 + w_a8 - w_a1 >= 
       -2511.905898200712
 c138: K_a1_a9 - 1256 m_a1_proc_0 - 1256 m_a9_proc_0 + w_a9 - w_a1 >= 
       -2511.905898200712
 c139: - 1256 m_a1_proc_1 + w_a0 - w_a1 >= -1255.883479264890
 c140: - 1256 m_a1_proc_1 + w_a3 - w_a1 >= -1255.883479264890
 c141: K_a1_a0 - 1256 m_a0_proc_1 - 1256 m_a1_proc_1 + w_a0 - w_a1 >= 
       -2511.883479264890
 c142: K_a1_a2 - 1256 m_a1_proc_1 - 1256 m_a2_proc_1 + w_a2 - w_a1 >= 
       -2511.883479264890
 c143: K_a1_a3 - 1256 m_a1_proc_1 - 1256 m_a3_proc_1 + w_a3 - w_a1 >= 
       -2511.883479264890
 c144: K_a1_a4 - 1256 m_a1_proc_1 - 1256 m_a4_proc_1 + w_a4 - w_a1 >= 
       -2511.883479264890
 c145: K_a1_a5 - 1256 m_a1_proc_1 - 1256 m_a5_proc_1 + w_a5 - w_a1 >= 
       -2511.883479264890
 c146: K_a1_a6 - 1256 m_a1_proc_1 - 1256 m_a6_proc_1 + w_a6 - w_a1 >= 
       -2511.883479264890
 c147: K_a1_a7 - 1256 m_a1_proc_1 - 1256 m_a7_proc_1 + w_a7 - w_a1 >= 
       -2511.883479264890
 c148: K_a1_a8 - 1256 m_a1_proc_1 - 1256 m_a8_proc_1 + w_a8 - w_a1 >= 
       -2511.883479264890
 c149: K_a1_a9 - 1256 m_a1_proc_1 - 1256 m_a9_proc_1 + w_a9 - w_a1 >= 
       -2511.883479264890
 c150: - 1256 m_a1_proc_2 + w_a0 - w_a1 >= -1255.907052824016
 c151: - 1256 m_a1_proc_2 + w_a3 - w_a1 >= -1255.907052824016
 c152: K_a1_a0 - 1256 m_a0_proc_2 - 1256 m_a1_proc_2 + w_a0 - w_a1 >= 
       -2511.907052824016
 c153: K_a1_a2 - 1256 m_a1_proc_2 - 1256 m_a2_proc_2 + w_a2 - w_a1 >= 
       -2511.907052824016
 c154: K_a1_a3 - 1256 m_a1_proc_2 - 1256 m_a3_proc_2 + w_a3 - w_a1 >= 
       -2511.907052824016
 c155: K_a1_a5 - 1256 m_a1_proc_2 - 1256 m_a5_proc_2 + w_a5 - w_a1 >= 
       -2511.907052824016
 c156: K_a1_a6 - 1256 m_a1_proc_2 - 1256 m_a6_proc_2 + w_a6 - w_a1 >= 
       -2511.907052824016
 c157: K_a1_a7 - 1256 m_a1_proc_2 - 1256 m_a7_proc_2 + w_a7 - w_a1 >= 
       -2511.907052824016
 c158: K_a1_a8 - 1256 m_a1_proc_2 - 1256 m_a8_proc_2 + w_a8 - w_a1 >= 
       -2511.907052824016
 c159: - 1256 m_a2_proc_0 + w_a1 - w_a2 >= -1255.899066679496
 c160: K_a2_a0 - 1256 m_a0_proc_0 - 1256 m_a2_proc_0 + w_a0 - w_a2 >= 
       -2511.899066679496
 c161: K_a2_a1 - 1256 m_a1_proc_0 - 1256 m_a2_proc_0 + w_a1 - w_a2 >= 
       -2511.899066679496
 c162: K_a2_a3 - 1256 m_a2_proc_0 - 1256 m_a3_proc_0 + w_a3 - w_a2 >= 
       -2511.899066679496
 c163: K_a2_a4 - 1256 m_a2_proc_0 - 1256 m_a4_proc_0 + w_a4 - w_a2 >= 
       -2511.899066679496
 c164: K_a2_a5 - 1256 m_a2_proc_0 - 1256 m_a5_proc_0 + w_a5 - w_a2 >= 
       -2511.899066679496
 c165: K_a2_a6 - 1256 m_a2_proc_0 - 1256 m_a6_proc_0 + w_a6 - w_a2 >= 
       -2511.899066679496
 c166: K_a2_a8 - 1256 m_a2_proc_0 - 1256 m_a8_proc_0 + w_a8 - w_a2 >= 
       -2511.899066679496
 c167: K_a2_a9 - 1256 m_a2_proc_0 - 1256 m_a9_proc_0 + w_a9 - w_a2 >= 
       -2511.899066679496
 c168: - 1256 m_a2_proc_1 + w_a1 - w_a2 >= -1255.905128451843
 c169: K_a2_a0 - 1256 m_a0_proc_1 - 1256 m_a2_proc_1 + w_a0 - w_a2 >= 
       -2511.905128451843
 c170: K_a2_a1 - 1256 m_a1_proc_1 - 1256 m_a2_proc_1 + w_a1 - w_a2 >= 
       -2511.905128451843
 c171: K_a2_a3 - 1256 m_a2_proc_1 - 1256 m_a3_proc_1 + w_a3 - w_a2 >= 
       -2511.905128451843
 c172: K_a2_a4 - 1256 m_a2_proc_1 - 1256 m_a4_proc_1 + w_a4 - w_a2 >= 
       -2511.905128451843
 c173: K_a2_a5 - 1256 m_a2_proc_1 - 1256 m_a5_proc_1 + w_a5 - w_a2 >= 
       -2511.905128451843
 c174: K_a2_a6 - 1256 m_a2_proc_1 - 1256 m_a6_proc_1 + w_a6 - w_a2 >= 
       -2511.905128451843
 c175: K_a2_a7 - 1256 m_a2_proc_1 - 1256 m_a7_proc_1 + w_a7 - w_a2 >= 
       -2511.905128451843
 c176: K_a2_a8 - 1256 m_a2_proc_1 - 1256 m_a8_proc_1 + w_a8 - w_a2 >= 
       -2511.905128451843
 c177: K_a2_a9 - 1256 m_a2_proc_1 - 1256 m_a9_proc_1 + w_a9 - w_a2 >= 
       -2511.905128451843
 c178: - 1256 m_a2_proc_2 + w_a1 - w_a2 >= -1255.908015010103
 c179: K_a2_a0 - 1256 m_a0_proc_2 - 1256 m_a2_proc_2 + w_a0 - w_a2 >= 
       -2511.908015010103
 c180: K_a2_a1 - 1256 m_a1_proc_2 - 1256 m_a2_proc_2 + w_a1 - w_a2 >= 
       -2511.908015010103
 c181: K_a2_a3 - 1256 m_a2_proc_2 - 1256 m_a3_proc_2 + w_a3 - w_a2 >= 
       -2511.908015010103
 c182: K_a2_a5 - 1256 m_a2_proc_2 - 1256 m_a5_proc_2 + w_a5 - w_a2 >= 
       -2511.908015010103
 c183: K_a2_a6 - 1256 m_a2_proc_2 - 1256 m_a6_proc_2 + w_a6 - w_a2 >= 
       -2511.908015010103
 c184: K_a2_a7 - 1256 m_a2_proc_2 - 1256 m_a7_proc_2 + w_a7 - w_a2 >= 
       -2511.908015010103
 c185: K_a2_a8 - 1256 m_a2_proc_2 - 1256 m_a8_proc_2 + w_a8 - w_a2 >= 
       -2511.908015010103
 c186: - 1256 m_a3_proc_0 + w_a7 - w_a3 >= -1257.881458674108
 c187: K_a3_a0 - 1256 m_a0_proc_0 - 1256 m_a3_proc_0 + w_a0 - w_a3 >= 
       -2511.881458674108
 c188: K_a3_a1 - 1256 m_a1_proc_0 - 1256 m_a3_proc_0 + w_a1 - w_a3 >= 
       -2511.881458674108
 c189: K_a3_a2 - 1256 m_a2_proc_0 - 1256 m_a3_proc_0 + w_a2 - w_a3 >= 
       -2511.881458674108
 c190: K_a3_a4 - 1256 m_a3_proc_0 - 1256 m_a4_proc_0 + w_a4 - w_a3 >= 
       -2511.881458674108
 c191: K_a3_a5 - 1256 m_a3_proc_0 - 1256 m_a5_proc_0 + w_a5 - w_a3 >= 
       -2511.881458674108
 c192: K_a3_a6 - 1256 m_a3_proc_0 - 1256 m_a6_proc_0 + w_a6 - w_a3 >= 
       -2511.881458674108
 c193: K_a3_a8 - 1256 m_a3_proc_0 - 1256 m_a8_proc_0 + w_a8 - w_a3 >= 
       -2511.881458674108
 c194: K_a3_a9 - 1256 m_a3_proc_0 - 1256 m_a9_proc_0 + w_a9 - w_a3 >= 
       -2511.881458674108
 c195: - 1256 m_a3_proc_1 + w_a7 - w_a3 >= -1257.884633888194
 c196: K_a3_a0 - 1256 m_a0_proc_1 - 1256 m_a3_proc_1 + w_a0 - w_a3 >= 
       -2511.884633888194
 c197: K_a3_a1 - 1256 m_a1_proc_1 - 1256 m_a3_proc_1 + w_a1 - w_a3 >= 
       -2511.884633888194
 c198: K_a3_a2 - 1256 m_a2_proc_1 - 1256 m_a3_proc_1 + w_a2 - w_a3 >= 
       -2511.884633888194
 c199: K_a3_a4 - 1256 m_a3_proc_1 - 1256 m_a4_proc_1 + w_a4 - w_a3 >= 
       -2511.884633888194
 c200: K_a3_a5 - 1256 m_a3_proc_1 - 1256 m_a5_proc_1 + w_a5 - w_a3 >= 
       -2511.884633888194
 c201: K_a3_a6 - 1256 m_a3_proc_1 - 1256 m_a6_proc_1 + w_a6 - w_a3 >= 
       -2511.884633888194
 c202: K_a3_a7 - 1256 m_a3_proc_1 - 1256 m_a7_proc_1 + w_a7 - w_a3 >= 
       -2511.884633888194
 c203: K_a3_a8 - 1256 m_a3_proc_1 - 1256 m_a8_proc_1 + w_a8 - w_a3 >= 
       -2511.884633888194
 c204: K_a3_a9 - 1256 m_a3_proc_1 - 1256 m_a9_proc_1 + w_a9 - w_a3 >= 
       -2511.884633888194
 c205: - 1256 m_a3_proc_2 + w_a7 - w_a3 >= -1257.882324641586
 c206: K_a3_a0 - 1256 m_a0_proc_2 - 1256 m_a3_proc_2 + w_a0 - w_a3 >= 
       -2511.882324641585
 c207: K_a3_a1 - 1256 m_a1_proc_2 - 1256 m_a3_proc_2 + w_a1 - w_a3 >= 
       -2511.882324641585
 c208: K_a3_a2 - 1256 m_a2_proc_2 - 1256 m_a3_proc_2 + w_a2 - w_a3 >= 
       -2511.882324641585
 c209: K_a3_a5 - 1256 m_a3_proc_2 - 1256 m_a5_proc_2 + w_a5 - w_a3 >= 
       -2511.882324641585
 c210: K_a3_a6 - 1256 m_a3_proc_2 - 1256 m_a6_proc_2 + w_a6 - w_a3 >= 
       -2511.882324641585
 c211: K_a3_a7 - 1256 m_a3_proc_2 - 1256 m_a7_proc_2 + w_a7 - w_a3 >= 
       -2511.882324641585
 c212: K_a3_a8 - 1256 m_a3_proc_2 - 1256 m_a8_proc_2 + w_a8 - w_a3 >= 
       -2511.882324641585
 c213: - 1256 m_a4_proc_0 + w_a7 - w_a4 >= -1256.921293178101
 c214: K_a4_a0 - 1256 m_a0_proc_0 - 1256 m_a4_proc_0 + w_a0 - w_a4 >= 
       -2511.921293178101
 c215: K_a4_a1 - 1256 m_a1_proc_0 - 1256 m_a4_proc_0 + w_a1 - w_a4 >= 
       -2511.921293178101
 c216: K_a4_a2 - 1256 m_a2_proc_0 - 1256 m_a4_proc_0 + w_a2 - w_a4 >= 
       -2511.921293178101
 c217: K_a4_a3 - 1256 m_a3_proc_0 - 1256 m_a4_proc_0 + w_a3 - w_a4 >= 
       -2511.921293178101
 c218: K_a4_a5 - 1256 m_a4_proc_0 - 1256 m_a5_proc_0 + w_a5 - w_a4 >= 
       -2511.921293178101
 c219: K_a4_a6 - 1256 m_a4_proc_0 - 1256 m_a6_proc_0 + w_a6 - w_a4 >= 
       -2511.921293178101
 c220: K_a4_a8 - 1256 m_a4_proc_0 - 1256 m_a8_proc_0 + w_a8 - w_a4 >= 
       -2511.921293178101
 c221: K_a4_a9 - 1256 m_a4_proc_0 - 1256 m_a9_proc_0 + w_a9 - w_a4 >= 
       -2511.921293178101
 c222: - 1256 m_a4_proc_1 + w_a7 - w_a4 >= -1256.916770903493
 c223: K_a4_a0 - 1256 m_a0_proc_1 - 1256 m_a4_proc_1 + w_a0 - w_a4 >= 
       -2511.916770903493
 c224: K_a4_a1 - 1256 m_a1_proc_1 - 1256 m_a4_proc_1 + w_a1 - w_a4 >= 
       -2511.916770903493
 c225: K_a4_a2 - 1256 m_a2_proc_1 - 1256 m_a4_proc_1 + w_a2 - w_a4 >= 
       -2511.916770903493
 c226: K_a4_a3 - 1256 m_a3_proc_1 - 1256 m_a4_proc_1 + w_a3 - w_a4 >= 
       -2511.916770903493
 c227: K_a4_a5 - 1256 m_a4_proc_1 - 1256 m_a5_proc_1 + w_a5 - w_a4 >= 
       -2511.916770903493
 c228: K_a4_a6 - 1256 m_a4_proc_1 - 1256 m_a6_proc_1 + w_a6 - w_a4 >= 
       -2511.916770903493
 c229: K_a4_a7 - 1256 m_a4_proc_1 - 1256 m_a7_proc_1 + w_a7 - w_a4 >= 
       -2511.916770903493
 c230: K_a4_a8 - 1256 m_a4_proc_1 - 1256 m_a8_proc_1 + w_a8 - w_a4 >= 
       -2511.916770903493
 c231: K_a4_a9 - 1256 m_a4_proc_1 - 1256 m_a9_proc_1 + w_a9 - w_a4 >= 
       -2511.916770903493
 c232: - 1256 m_a5_proc_0 + w_a1 - w_a5 >= -1255.962763398441
 c233: - 1256 m_a5_proc_0 + w_a7 - w_a5 >= -1256.962763398441
 c234: K_a5_a0 - 1256 m_a0_proc_0 - 1256 m_a5_proc_0 + w_a0 - w_a5 >= 
       -2511.962763398441
 c235: K_a5_a1 - 1256 m_a1_proc_0 - 1256 m_a5_proc_0 + w_a1 - w_a5 >= 
       -2511.962763398441
 c236: K_a5_a2 - 1256 m_a2_proc_0 - 1256 m_a5_proc_0 + w_a2 - w_a5 >= 
       -2511.962763398441
 c237: K_a5_a3 - 1256 m_a3_proc_0 - 1256 m_a5_proc_0 + w_a3 - w_a5 >= 
       -2511.962763398441
 c238: K_a5_a4 - 1256 m_a4_proc_0 - 1256 m_a5_proc_0 + w_a4 - w_a5 >= 
       -2511.962763398441
 c239: K_a5_a6 - 1256 m_a5_proc_0 - 1256 m_a6_proc_0 + w_a6 - w_a5 >= 
       -2511.962763398441
 c240: K_a5_a8 - 1256 m_a5_proc_0 - 1256 m_a8_proc_0 + w_a8 - w_a5 >= 
       -2511.962763398441
 c241: K_a5_a9 - 1256 m_a5_proc_0 - 1256 m_a9_proc_0 + w_a9 - w_a5 >= 
       -2511.962763398441
 c242: - 1256 m_a5_proc_1 + w_a1 - w_a5 >= -1255.910612912537
 c243: - 1256 m_a5_proc_1 + w_a7 - w_a5 >= -1256.910612912537
 c244: K_a5_a0 - 1256 m_a0_proc_1 - 1256 m_a5_proc_1 + w_a0 - w_a5 >= 
       -2511.910612912537
 c245: K_a5_a1 - 1256 m_a1_proc_1 - 1256 m_a5_proc_1 + w_a1 - w_a5 >= 
       -2511.910612912537
 c246: K_a5_a2 - 1256 m_a2_proc_1 - 1256 m_a5_proc_1 + w_a2 - w_a5 >= 
       -2511.910612912537
 c247: K_a5_a3 - 1256 m_a3_proc_1 - 1256 m_a5_proc_1 + w_a3 - w_a5 >= 
       -2511.910612912537
 c248: K_a5_a4 - 1256 m_a4_proc_1 - 1256 m_a5_proc_1 + w_a4 - w_a5 >= 
       -2511.910612912537
 c249: K_a5_a6 - 1256 m_a5_proc_1 - 1256 m_a6_proc_1 + w_a6 - w_a5 >= 
       -2511.910612912537
 c250: K_a5_a7 - 1256 m_a5_proc_1 - 1256 m_a7_proc_1 + w_a7 - w_a5 >= 
       -2511.910612912537
 c251: K_a5_a8 - 1256 m_a5_proc_1 - 1256 m_a8_proc_1 + w_a8 - w_a5 >= 
       -2511.910612912537
 c252: K_a5_a9 - 1256 m_a5_proc_1 - 1256 m_a9_proc_1 + w_a9 - w_a5 >= 
       -2511.910612912537
 c253: - 1256 m_a5_proc_2 + w_a1 - w_a5 >= -1255.921485615318
 c254: - 1256 m_a5_proc_2 + w_a7 - w_a5 >= -1256.921485615318
 c255: K_a5_a0 - 1256 m_a0_proc_2 - 1256 m_a5_proc_2 + w_a0 - w_a5 >= 
       -2511.921485615318
 c256: K_a5_a1 - 1256 m_a1_proc_2 - 1256 m_a5_proc_2 + w_a1 - w_a5 >= 
       -2511.921485615318
 c257: K_a5_a2 - 1256 m_a2_proc_2 - 1256 m_a5_proc_2 + w_a2 - w_a5 >= 
       -2511.921485615318
 c258: K_a5_a3 - 1256 m_a3_proc_2 - 1256 m_a5_proc_2 + w_a3 - w_a5 >= 
       -2511.921485615318
 c259: K_a5_a6 - 1256 m_a5_proc_2 - 1256 m_a6_proc_2 + w_a6 - w_a5 >= 
       -2511.921485615318
 c260: K_a5_a7 - 1256 m_a5_proc_2 - 1256 m_a7_proc_2 + w_a7 - w_a5 >= 
       -2511.921485615318
 c261: K_a5_a8 - 1256 m_a5_proc_2 - 1256 m_a8_proc_2 + w_a8 - w_a5 >= 
       -2511.921485615318
 c262: - 1256 m_a6_proc_0 + w_a2 - w_a6 >= -1255.879149427499
 c263: K_a6_a0 - 1256 m_a0_proc_0 - 1256 m_a6_proc_0 + w_a0 - w_a6 >= 
       -2511.879149427499
 c264: K_a6_a1 - 1256 m_a1_proc_0 - 1256 m_a6_proc_0 + w_a1 - w_a6 >= 
       -2511.879149427499
 c265: K_a6_a2 - 1256 m_a2_proc_0 - 1256 m_a6_proc_0 + w_a2 - w_a6 >= 
       -2511.879149427499
 c266: K_a6_a3 - 1256 m_a3_proc_0 - 1256 m_a6_proc_0 + w_a3 - w_a6 >= 
       -2511.879149427499
 c267: K_a6_a4 - 1256 m_a4_proc_0 - 1256 m_a6_proc_0 + w_a4 - w_a6 >= 
       -2511.879149427499
 c268: K_a6_a5 - 1256 m_a5_proc_0 - 1256 m_a6_proc_0 + w_a5 - w_a6 >= 
       -2511.879149427499
 c269: K_a6_a8 - 1256 m_a6_proc_0 - 1256 m_a8_proc_0 + w_a8 - w_a6 >= 
       -2511.879149427499
 c270: K_a6_a9 - 1256 m_a6_proc_0 - 1256 m_a9_proc_0 + w_a9 - w_a6 >= 
       -2511.879149427499
 c271: - 1256 m_a6_proc_1 + w_a2 - w_a6 >= -1255.903973828538
 c272: K_a6_a0 - 1256 m_a0_proc_1 - 1256 m_a6_proc_1 + w_a0 - w_a6 >= 
       -2511.903973828538
 c273: K_a6_a1 - 1256 m_a1_proc_1 - 1256 m_a6_proc_1 + w_a1 - w_a6 >= 
       -2511.903973828538
 c274: K_a6_a2 - 1256 m_a2_proc_1 - 1256 m_a6_proc_1 + w_a2 - w_a6 >= 
       -2511.903973828538
 c275: K_a6_a3 - 1256 m_a3_proc_1 - 1256 m_a6_proc_1 + w_a3 - w_a6 >= 
       -2511.903973828538
 c276: K_a6_a4 - 1256 m_a4_proc_1 - 1256 m_a6_proc_1 + w_a4 - w_a6 >= 
       -2511.903973828538
 c277: K_a6_a5 - 1256 m_a5_proc_1 - 1256 m_a6_proc_1 + w_a5 - w_a6 >= 
       -2511.903973828538
 c278: K_a6_a7 - 1256 m_a6_proc_1 - 1256 m_a7_proc_1 + w_a7 - w_a6 >= 
       -2511.903973828538
 c279: K_a6_a8 - 1256 m_a6_proc_1 - 1256 m_a8_proc_1 + w_a8 - w_a6 >= 
       -2511.903973828538
 c280: K_a6_a9 - 1256 m_a6_proc_1 - 1256 m_a9_proc_1 + w_a9 - w_a6 >= 
       -2511.903973828538
 c281: - 1256 m_a6_proc_2 + w_a2 - w_a6 >= -1255.988646204176
 c282: K_a6_a0 - 1256 m_a0_proc_2 - 1256 m_a6_proc_2 + w_a0 - w_a6 >= 
       -2511.988646204176
 c283: K_a6_a1 - 1256 m_a1_proc_2 - 1256 m_a6_proc_2 + w_a1 - w_a6 >= 
       -2511.988646204176
 c284: K_a6_a2 - 1256 m_a2_proc_2 - 1256 m_a6_proc_2 + w_a2 - w_a6 >= 
       -2511.988646204176
 c285: K_a6_a3 - 1256 m_a3_proc_2 - 1256 m_a6_proc_2 + w_a3 - w_a6 >= 
       -2511.988646204176
 c286: K_a6_a5 - 1256 m_a5_proc_2 - 1256 m_a6_proc_2 + w_a5 - w_a6 >= 
       -2511.988646204176
 c287: K_a6_a7 - 1256 m_a6_proc_2 - 1256 m_a7_proc_2 + w_a7 - w_a6 >= 
       -2511.988646204176
 c288: K_a6_a8 - 1256 m_a6_proc_2 - 1256 m_a8_proc_2 + w_a8 - w_a6 >= 
       -2511.988646204176
 c289: - 1256 m_a7_proc_1 + w_a9 - w_a7 >= -1255.919657461753
 c290: K_a7_a0 - 1256 m_a0_proc_1 - 1256 m_a7_proc_1 + w_a0 - w_a7 >= 
       -2511.919657461753
 c291: K_a7_a1 - 1256 m_a1_proc_1 - 1256 m_a7_proc_1 + w_a1 - w_a7 >= 
       -2511.919657461753
 c292: K_a7_a2 - 1256 m_a2_proc_1 - 1256 m_a7_proc_1 + w_a2 - w_a7 >= 
       -2511.919657461753
 c293: K_a7_a3 - 1256 m_a3_proc_1 - 1256 m_a7_proc_1 + w_a3 - w_a7 >= 
       -2511.919657461753
 c294: K_a7_a4 - 1256 m_a4_proc_1 - 1256 m_a7_proc_1 + w_a4 - w_a7 >= 
       -2511.919657461753
 c295: K_a7_a5 - 1256 m_a5_proc_1 - 1256 m_a7_proc_1 + w_a5 - w_a7 >= 
       -2511.919657461753
 c296: K_a7_a6 - 1256 m_a6_proc_1 - 1256 m_a7_proc_1 + w_a6 - w_a7 >= 
       -2511.919657461753
 c297: K_a7_a8 - 1256 m_a7_proc_1 - 1256 m_a8_proc_1 + w_a8 - w_a7 >= 
       -2511.919657461753
 c298: K_a7_a9 - 1256 m_a7_proc_1 - 1256 m_a9_proc_1 + w_a9 - w_a7 >= 
       -2511.919657461753
 c299: - 1256 m_a7_proc_2 + w_a9 - w_a7 >= -1255.942749927836
 c300: K_a7_a0 - 1256 m_a0_proc_2 - 1256 m_a7_proc_2 + w_a0 - w_a7 >= 
       -2511.942749927836
 c301: K_a7_a1 - 1256 m_a1_proc_2 - 1256 m_a7_proc_2 + w_a1 - w_a7 >= 
       -2511.942749927836
 c302: K_a7_a2 - 1256 m_a2_proc_2 - 1256 m_a7_proc_2 + w_a2 - w_a7 >= 
       -2511.942749927836
 c303: K_a7_a3 - 1256 m_a3_proc_2 - 1256 m_a7_proc_2 + w_a3 - w_a7 >= 
       -2511.942749927836
 c304: K_a7_a5 - 1256 m_a5_proc_2 - 1256 m_a7_proc_2 + w_a5 - w_a7 >= 
       -2511.942749927836
 c305: K_a7_a6 - 1256 m_a6_proc_2 - 1256 m_a7_proc_2 + w_a6 - w_a7 >= 
       -2511.942749927836
 c306: K_a7_a8 - 1256 m_a7_proc_2 - 1256 m_a8_proc_2 + w_a8 - w_a7 >= 
       -2511.942749927836
 c307: - 1256 m_a8_proc_0 + w_a5 - w_a8 >= -1255.920138554796
 c308: - 1256 m_a8_proc_0 + w_a2 - w_a8 >= -1255.920138554796
 c309: K_a8_a0 - 1256 m_a0_proc_0 - 1256 m_a8_proc_0 + w_a0 - w_a8 >= 
       -2511.920138554797
 c310: K_a8_a1 - 1256 m_a1_proc_0 - 1256 m_a8_proc_0 + w_a1 - w_a8 >= 
       -2511.920138554797
 c311: K_a8_a2 - 1256 m_a2_proc_0 - 1256 m_a8_proc_0 + w_a2 - w_a8 >= 
       -2511.920138554797
 c312: K_a8_a3 - 1256 m_a3_proc_0 - 1256 m_a8_proc_0 + w_a3 - w_a8 >= 
       -2511.920138554797
 c313: K_a8_a4 - 1256 m_a4_proc_0 - 1256 m_a8_proc_0 + w_a4 - w_a8 >= 
       -2511.920138554797
 c314: K_a8_a5 - 1256 m_a5_proc_0 - 1256 m_a8_proc_0 + w_a5 - w_a8 >= 
       -2511.920138554797
 c315: K_a8_a6 - 1256 m_a6_proc_0 - 1256 m_a8_proc_0 + w_a6 - w_a8 >= 
       -2511.920138554797
 c316: K_a8_a9 - 1256 m_a8_proc_0 - 1256 m_a9_proc_0 + w_a9 - w_a8 >= 
       -2511.920138554797
 c317: - 1256 m_a8_proc_1 + w_a5 - w_a8 >= -1255.943231020879
 c318: - 1256 m_a8_proc_1 + w_a2 - w_a8 >= -1255.943231020879
 c319: K_a8_a0 - 1256 m_a0_proc_1 - 1256 m_a8_proc_1 + w_a0 - w_a8 >= 
       -2511.943231020879
 c320: K_a8_a1 - 1256 m_a1_proc_1 - 1256 m_a8_proc_1 + w_a1 - w_a8 >= 
       -2511.943231020879
 c321: K_a8_a2 - 1256 m_a2_proc_1 - 1256 m_a8_proc_1 + w_a2 - w_a8 >= 
       -2511.943231020879
 c322: K_a8_a3 - 1256 m_a3_proc_1 - 1256 m_a8_proc_1 + w_a3 - w_a8 >= 
       -2511.943231020879
 c323: K_a8_a4 - 1256 m_a4_proc_1 - 1256 m_a8_proc_1 + w_a4 - w_a8 >= 
       -2511.943231020879
 c324: K_a8_a5 - 1256 m_a5_proc_1 - 1256 m_a8_proc_1 + w_a5 - w_a8 >= 
       -2511.943231020879
 c325: K_a8_a6 - 1256 m_a6_proc_1 - 1256 m_a8_proc_1 + w_a6 - w_a8 >= 
       -2511.943231020879
 c326: K_a8_a7 - 1256 m_a7_proc_1 - 1256 m_a8_proc_1 + w_a7 - w_a8 >= 
       -2511.943231020879
 c327: K_a8_a9 - 1256 m_a8_proc_1 - 1256 m_a9_proc_1 + w_a9 - w_a8 >= 
       -2511.943231020879
 c328: - 1256 m_a8_proc_2 + w_a5 - w_a8 >= -1255.905032233234
 c329: - 1256 m_a8_proc_2 + w_a2 - w_a8 >= -1255.905032233234
 c330: K_a8_a0 - 1256 m_a0_proc_2 - 1256 m_a8_proc_2 + w_a0 - w_a8 >= 
       -2511.905032233234
 c331: K_a8_a1 - 1256 m_a1_proc_2 - 1256 m_a8_proc_2 + w_a1 - w_a8 >= 
       -2511.905032233234
 c332: K_a8_a2 - 1256 m_a2_proc_2 - 1256 m_a8_proc_2 + w_a2 - w_a8 >= 
       -2511.905032233234
 c333: K_a8_a3 - 1256 m_a3_proc_2 - 1256 m_a8_proc_2 + w_a3 - w_a8 >= 
       -2511.905032233234
 c334: K_a8_a5 - 1256 m_a5_proc_2 - 1256 m_a8_proc_2 + w_a5 - w_a8 >= 
       -2511.905032233234
 c335: K_a8_a6 - 1256 m_a6_proc_2 - 1256 m_a8_proc_2 + w_a6 - w_a8 >= 
       -2511.905032233234
 c336: K_a8_a7 - 1256 m_a7_proc_2 - 1256 m_a8_proc_2 + w_a7 - w_a8 >= 
       -2511.905032233234
 c337: - 1256 m_a9_proc_0 + w_a2 - w_a9 >= -1255.897815837583
 c338: - 1256 m_a9_proc_0 + w_a8 - w_a9 >= -1255.897815837583
 c339: - 1256 m_a9_proc_0 >= -1256.897815837583
 c340: K_a9_a0 - 1256 m_a0_proc_0 - 1256 m_a9_proc_0 + w_a0 - w_a9 >= 
       -2511.897815837583
 c341: K_a9_a1 - 1256 m_a1_proc_0 - 1256 m_a9_proc_0 + w_a1 - w_a9 >= 
       -2511.897815837583
 c342: K_a9_a2 - 1256 m_a2_proc_0 - 1256 m_a9_proc_0 + w_a2 - w_a9 >= 
       -2511.897815837583
 c343: K_a9_a3 - 1256 m_a3_proc_0 - 1256 m_a9_proc_0 + w_a3 - w_a9 >= 
       -2511.897815837583
 c344: K_a9_a4 - 1256 m_a4_proc_0 - 1256 m_a9_proc_0 + w_a4 - w_a9 >= 
       -2511.897815837583
 c345: K_a9_a5 - 1256 m_a5_proc_0 - 1256 m_a9_proc_0 + w_a5 - w_a9 >= 
       -2511.897815837583
 c346: K_a9_a6 - 1256 m_a6_proc_0 - 1256 m_a9_proc_0 + w_a6 - w_a9 >= 
       -2511.897815837583
 c347: K_a9_a8 - 1256 m_a8_proc_0 - 1256 m_a9_proc_0 + w_a8 - w_a9 >= 
       -2511.897815837583
 c348: - 1256 m_a9_proc_1 + w_a2 - w_a9 >= -1255.906475512364
 c349: - 1256 m_a9_proc_1 + w_a8 - w_a9 >= -1255.906475512364
 c350: - 1256 m_a9_proc_1 >= -1256.906475512364
 c351: K_a9_a0 - 1256 m_a0_proc_1 - 1256 m_a9_proc_1 + w_a0 - w_a9 >= 
       -2511.906475512364
 c352: K_a9_a1 - 1256 m_a1_proc_1 - 1256 m_a9_proc_1 + w_a1 - w_a9 >= 
       -2511.906475512364
 c353: K_a9_a2 - 1256 m_a2_proc_1 - 1256 m_a9_proc_1 + w_a2 - w_a9 >= 
       -2511.906475512364
 c354: K_a9_a3 - 1256 m_a3_proc_1 - 1256 m_a9_proc_1 + w_a3 - w_a9 >= 
       -2511.906475512364
 c355: K_a9_a4 - 1256 m_a4_proc_1 - 1256 m_a9_proc_1 + w_a4 - w_a9 >= 
       -2511.906475512364
 c356: K_a9_a5 - 1256 m_a5_proc_1 - 1256 m_a9_proc_1 + w_a5 - w_a9 >= 
       -2511.906475512364
 c357: K_a9_a6 - 1256 m_a6_proc_1 - 1256 m_a9_proc_1 + w_a6 - w_a9 >= 
       -2511.906475512364
 c358: K_a9_a7 - 1256 m_a7_proc_1 - 1256 m_a9_proc_1 + w_a7 - w_a9 >= 
       -2511.906475512364
 c359: K_a9_a8 - 1256 m_a8_proc_1 - 1256 m_a9_proc_1 + w_a8 - w_a9 >= 
       -2511.906475512364
 c360: z - 0.000133457894 K_a0_a3 - 0.000133457894 K_a3_a4
       + 0.167623114907 m_a0_proc_0 - 0.129053783531 m_a0_proc_1
       - 0.129053783531 m_a0_proc_2 + 0.335246229814 m_a3_proc_0
       - 0.164420125450 m_a3_proc_1 - 0.164420125450 m_a3_proc_2
       + 0.167623114907 m_a4_proc_0 - 0.020952889363 m_a8_proc_0
       - 0.052982783932 m_a8_proc_1 <= 0.670625917523
 c361: z - 0.000230467850 K_a5_a0 + 0.289467619267 m_a0_proc_0
       - 0.010831988938 m_a4_proc_0 + 0.289467619267 m_a5_proc_0
       - 0.089191057847 m_a5_proc_1 - 0.089191057847 m_a5_proc_2
       - 0.055312283936 m_a7_proc_2 <= 0.579396174234

Bounds
 -inf <= K_a0_a1 <= 1000000000
 -inf <= K_a0_a2 <= 1000000000
 -inf <= K_a0_a3 <= 1000000000
 -inf <= K_a0_a4 <= 1000000000
 -inf <= K_a0_a5 <= 1000000000
 -inf <= K_a0_a6 <= 1000000000
 -inf <= K_a0_a7 <= 1000000000
 -inf <= K_a0_a8 <= 1000000000
 -inf <= K_a0_a9 <= 1000000000
 -inf <= K_a1_a0 <= 1000000000
 -inf <= K_a1_a2 <= 1000000000
 -inf <= K_a1_a3 <= 1000000000
 -inf <= K_a1_a4 <= 1000000000
 -inf <= K_a1_a5 <= 1000000000
 -inf <= K_a1_a6 <= 1000000000
 -inf <= K_a1_a7 <= 1000000000
 -inf <= K_a1_a8 <= 1000000000
 -inf <= K_a1_a9 <= 1000000000
 -inf <= K_a2_a0 <= 1000000000
 -inf <= K_a2_a1 <= 1000000000
 -inf <= K_a2_a3 <= 1000000000
 -inf <= K_a2_a4 <= 1000000000
 -inf <= K_a2_a5 <= 1000000000
 -inf <= K_a2_a6 <= 1000000000
 -inf <= K_a2_a7 <= 1000000000
 -inf <= K_a2_a8 <= 1000000000
 -inf <= K_a2_a9 <= 1000000000
 -inf <= K_a3_a0 <= 1000000000
 -inf <= K_a3_a1 <= 1000000000
 -inf <= K_a3_a2 <= 1000000000
 -inf <= K_a3_a4 <= 1000000000
 -inf <= K_a3_a5 <= 1000000000
 -inf <= K_a3_a6 <= 1000000000
 -inf <= K_a3_a7 <= 1000000000
 -inf <= K_a3_a8 <= 1000000000
 -inf <= K_a3_a9 <= 1000000000
 -inf <= K_a4_a0 <= 1000000000
 -inf <= K_a4_a1 <= 1000000000
 -inf <= K_a4_a2 <= 1000000000
 -inf <= K_a4_a3 <= 1000000000
 -inf <= K_a4_a5 <= 1000000000
 -inf <= K_a4_a6 <= 1000000000
 -inf <= K_a4_a7 <= 1000000000
 -inf <= K_a4_a8 <= 1000000000
 -inf <= K_a4_a9 <= 1000000000
 -inf <= K_a5_a0 <= 1000000000
 -inf <= K_a5_a1 <= 1000000000
 -inf <= K_a5_a2 <= 1000000000
 -inf <= K_a5_a3 <= 1000000000
 -inf <= K_a5_a4 <= 1000000000
 -inf <= K_a5_a6 <= 1000000000
 -inf <= K_a5_a7 <= 1000000000
 -inf <= K_a5_a8 <= 1000000000
 -inf <= K_a5_a9 <= 1000000000
 -inf <= K_a6_a0 <= 1000000000
 -inf <= K_a6_a1 <= 1000000000
 -inf <= K_a6_a2 <= 1000000000
 -inf <= K_a6_a3 <= 1000000000
 -inf <= K_a6_a4 <= 1000000000
 -inf <= K_a6_a5 <= 1000000000
 -inf <= K_a6_a7 <= 1000000000
 -inf <= K_a6_a8 <= 1000000000
 -inf <= K_a6_a9 <= 1000000000
 -inf <= K_a7_a0 <= 1000000000
 -inf <= K_a7_a1 <= 1000000000
 -inf <= K_a7_a2 <= 1000000000
 -inf <= K_a7_a3 <= 1000000000
 -inf <= K_a7_a4 <= 1000000000
 -inf <= K_a7_a5 <= 1000000000
 -inf <= K_a7_a6 <= 1000000000
 -inf <= K_a7_a8 <= 1000000000
 -inf <= K_a7_a9 <= 1000000000
 -inf <= K_a8_a0 <= 1000000000
 -inf <= K_a8_a1 <= 1000000000
 -inf <= K_a8_a2 <= 1000000000
 -inf <= K_a8_a3 <= 1000000000
 -inf <= K_a8_a4 <= 1000000000
 -inf <= K_a8_a5 <= 1000000000
 -inf <= K_a8_a6 <= 1000000000
 -inf <= K_a8_a7 <= 1000000000
 -inf <= K_a8_a9 <= 1000000000
 -inf <= K_a9_a0 <= 1000000000
 -inf <= K_a9_a1 <= 1000000000
 -inf <= K_a9_a2 <= 1000000000
 -inf <= K_a9_a3 <= 1000000000
 -inf <= K_a9_a4 <= 1000000000
 -inf <= K_a9_a5 <= 1000000000
 -inf <= K_a9_a6 <= 1000000000
 -inf <= K_a9_a7 <= 1000000000
 -inf <= K_a9_a8 <= 1000000000
 0 <= m_a0_proc_0 <= 1
 0 <= m_a0_proc_1 <= 1
 0 <= m_a0_proc_2 <= 1
 0 <= m_a1_proc_0 <= 1
 0 <= m_a1_proc_1 <= 1
 0 <= m_a1_proc_2 <= 1
 0 <= m_a2_proc_0 <= 1
 0 <= m_a2_proc_1 <= 1
 0 <= m_a2_proc_2 <= 1
 0 <= m_a3_proc_0 <= 1
 0 <= m_a3_proc_1 <= 1
 0 <= m_a3_proc_2 <= 1
 0 <= m_a4_proc_0 <= 1
 0 <= m_a4_proc_1 <= 1
 0 <= m_a5_proc_0 <= 1
 0 <= m_a5_proc_1 <= 1
 0 <= m_a5_proc_2 <= 1
 0 <= m_a6_proc_0 <= 1
 0 <= m_a6_proc_1 <= 1
 0 <= m_a6_proc_2 <= 1
 0 <= m_a7_proc_1 <= 1
 0 <= m_a7_proc_2 <= 1
 0 <= m_a8_proc_0 <= 1
 0 <= m_a8_proc_1 <= 1
 0 <= m_a8_proc_2 <= 1
 0 <= m_a9_proc_0 <= 1
 0 <= m_a9_proc_1 <= 1

Binaries
 m_a0_proc_0 m_a0_proc_1 m_a0_proc_2 m_a1_proc_0 m_a1_proc_1 m_a1_proc_2
 m_a2_proc_0 m_a2_proc_1 m_a2_proc_2 m_a3_proc_0 m_a3_proc_1 m_a3_proc_2
 m_a4_proc_0 m_a4_proc_1 m_a5_proc_0 m_a5_proc_1 m_a5_proc_2 m_a6_proc_0
 m_a6_proc_1 m_a6_proc_2 m_a7_proc_1 m_a7_proc_2 m_a8_proc_0 m_a8_proc_1
 m_a8_proc_2 m_a9_proc_0 m_a9_proc_1

Generals
 K_a0_a1 K_a0_a2 K_a0_a3 K_a0_a4 K_a0_a5 K_a0_a6 K_a0_a7 K_a0_a8 K_a0_a9 K_a1_a0
 K_a1_a2 K_a1_a3 K_a1_a4 K_a1_a5 K_a1_a6 K_a1_a7 K_a1_a8 K_a1_a9 K_a2_a0 K_a2_a1
 K_a2_a3 K_a2_a4 K_a2_a5 K_a2_a6 K_a2_a7 K_a2_a8 K_a2_a9 K_a3_a0 K_a3_a1 K_a3_a2
 K_a3_a4 K_a3_a5 K_a3_a6 K_a3_a7 K_a3_a8 K_a3_a9 K_a4_a0 K_a4_a1 K_a4_a2 K_a4_a3
 K_a4_a5 K_a4_a6 K_a4_a7 K_a4_a8 K_a4_a9 K_a5_a0 K_a5_a1 K_a5_a2 K_a5_a3 K_a5_a4
 K_a5_a6 K_a5_a7 K_a5_a8 K_a5_a9 K_a6_a0 K_a6_a1 K_a6_a2 K_a6_a3 K_a6_a4 K_a6_a5
 K_a6_a7 K_a6_a8 K_a6_a9 K_a7_a0 K_a7_a1 K_a7_a2 K_a7_a3 K_a7_a4 K_a7_a5 K_a7_a6
 K_a7_a8 K_a7_a9 K_a8_a0 K_a8_a1 K_a8_a2 K_a8_a3 K_a8_a4 K_a8_a5 K_a8_a6 K_a8_a7
 K_a8_a9 K_a9_a0 K_a9_a1 K_a9_a2 K_a9_a3 K_a9_a4 K_a9_a5 K_a9_a6 K_a9_a7 K_a9_a8
End
