benchmark/results/graph__10-1000-0.10-03_10/graph__10-1000-0.10-03_10_Quinton_Benders_master.txt
solution for: Quinton Benders_master
objective: 1.3526
status: OPTIMAL_SOLUTION(2)
K_a0_a1=1257
K_a0_a2=1257
K_a0_a3=1257
K_a0_a4=1
K_a0_a5=1258
K_a0_a6=1258
K_a0_a7=2
K_a0_a8=2
K_a0_a9=2
K_a1_a0=-1256
K_a1_a2=1256
K_a1_a4=1256
K_a1_a5=1257
K_a1_a6=1257
K_a1_a7=1257
K_a1_a8=1257
K_a1_a9=1257
K_a2_a0=-1256
K_a2_a1=-1255
K_a2_a3=1256
K_a2_a4=1256
K_a2_a5=1
K_a2_a6=1
K_a2_a7=1257
K_a2_a8=1257
K_a2_a9=1257
K_a3_a0=-1256
K_a3_a1=1
K_a3_a2=-1255
K_a3_a4=1257
K_a3_a5=1257
K_a3_a6=1257
K_a3_a7=1257
K_a3_a8=1257
K_a3_a9=1257
K_a4_a1=-1255
K_a4_a2=-1255
K_a4_a3=-1256
K_a4_a5=1257
K_a4_a6=1257
K_a4_a7=1
K_a4_a8=1
K_a4_a9=1
K_a5_a0=-1257
K_a5_a1=-1256
K_a5_a3=-1256
K_a5_a4=-1256
K_a5_a6=1
K_a5_a7=1257
K_a5_a8=1256
K_a5_a9=1257
K_a6_a0=-1257
K_a6_a1=-1256
K_a6_a3=-1256
K_a6_a4=-1256
K_a6_a7=1256
K_a6_a8=1256
K_a6_a9=1256
K_a7_a0=-1
K_a7_a1=-1256
K_a7_a2=-1256
K_a7_a3=-1256
K_a7_a5=-1256
K_a7_a6=-1255
K_a8_a0=-1
K_a8_a1=-1256
K_a8_a2=-1256
K_a8_a3=-1256
K_a8_a5=-1255
K_a8_a6=-1255
K_a8_a7=1
K_a8_a9=1
K_a9_a0=-1
K_a9_a1=-1256
K_a9_a2=-1256
K_a9_a3=-1256
K_a9_a5=-1256
K_a9_a6=-1255
K_a9_a7=1
m_a0_proc_1=1
m_a1_proc_2=1
m_a2_proc_0=1
m_a3_proc_2=1
m_a4_proc_1=1
m_a5_proc_0=1
m_a6_proc_0=1
m_a7_proc_1=1
m_a8_proc_1=1
m_a9_proc_1=1
z=1.353
w_a0=1.951
w_a1=1.008
w_a2=0.899
w_a3=1.101
w_a4=1.018
w_a5=0.862
w_a7=0.101
w_a8=0.805
w_a9=0.712
